tsp_instances/TSP50/instance54.tsp
NODE_COORD_SECTION
0 31 184
1 7 105
2 105 20
3 163 189
4 127 190
5 113 183
6 194 42
7 40 121
8 87 170
9 44 99
10 168 17
11 54 8
12 111 157
13 40 53
14 148 110
15 46 17
16 191 188
17 121 140
18 31 90
19 21 11
20 193 58
21 46 45
22 102 120
23 148 5
24 40 40
25 166 182
26 194 186
27 46 144
28 26 124
29 187 173
30 172 83
31 3 146
32 31 46
33 183 112
34 129 35
35 184 104
36 198 151
37 173 37
38 189 156
39 62 158
40 182 121
41 149 35
42 21 88
43 133 191
44 106 165
45 71 27
46 83 131
47 164 153
48 195 177
49 172 145
