tsp_instances/TSP50/instance54.opt.tour
TOUR_SECTION
1
28
40
47
23
18
13
45
9
6
5
44
4
26
17
27
49
30
37
39
48
50
41
34
36
15
31
21
7
38
11
24
42
35
3
46
12
16
20
33
25
22
14
43
19
10
8
29
2
32
-1